networks/zoo_148_5402/zoo_148_5402-lower.txt
Number of groups: 74
Flow 1: {1 2 0} {2 76 0} 
Flow 2: {1 4 0} {4 3 0} {3 77 0} 
Flow 3: {4 78 0} 
Flow 4: {2 7 0} {7 8 0} {8 5 0} {5 79 0} 
Flow 5: {4 11 0} {11 6 0} {6 80 0} 
Flow 6: {7 81 0} 
Flow 7: {8 82 0} 
Flow 8: {9 83 0} 
Flow 9: {4 67 0} {67 27 0} {27 10 0} {10 84 0} 
Flow 10: {11 85 0} 
Flow 11: {2 57 0} {57 12 0} {12 86 0} 
Flow 12: {27 15 0} {15 13 0} {13 87 0} 
Flow 13: {13 14 0} {14 88 0} 
Flow 14: {15 89 0} 
Flow 15: {2 68 0} {68 9 0} {9 16 0} {16 90 0} 
Flow 16: {1 42 0} {42 18 0} {18 17 0} {17 91 0} 
Flow 17: {18 92 0} 
Flow 18: {1 50 0} {50 19 0} {19 93 0} 
Flow 19: {19 20 0} {20 94 0} 
Flow 20: {50 21 0} {21 95 0} 
Flow 21: {4 23 0} {23 22 0} {22 96 0} 
Flow 22: {23 97 0} 
Flow 23: {42 24 0} {24 98 0} 
Flow 24: {24 25 0} {25 99 0} 
Flow 25: {24 26 0} {26 100 0} 
Flow 26: {27 101 0} 
Flow 27: {12 28 0} {28 102 0} 
Flow 28: {9 30 0} {30 34 0} {34 29 0} {29 103 0} 
Flow 29: {30 104 0} 
Flow 30: {30 31 0} {31 105 0} 
Flow 31: {16 32 0} {32 106 0} 
Flow 32: {68 38 0} {38 33 0} {33 107 0} 
Flow 33: {34 108 0} 
Flow 34: {67 35 0} {35 109 0} 
Flow 35: {67 36 0} {36 110 0} 
Flow 36: {38 37 0} {37 111 0} 
Flow 37: {38 112 0} 
Flow 38: {38 39 0} {39 113 0} 
Flow 39: {38 40 0} {40 114 0} 
Flow 40: {18 41 0} {41 115 0} 
Flow 41: {42 116 0} 
Flow 42: {67 43 0} {43 117 0} 
Flow 43: {41 44 0} {44 118 0} 
Flow 44: {43 45 0} {45 119 0} 
Flow 45: {43 46 0} {46 120 0} 
Flow 46: {69 47 0} {47 121 0} 
Flow 46: {68 69 0} Flow 47: {68 52 0} {52 48 0} {48 122 0} 
Flow 48: {32 49 0} {49 123 0} 
Flow 49: {50 124 0} 
Flow 50: {50 51 0} {51 125 0} 
Flow 51: {52 126 0} 
Flow 52: {7 53 0} {53 127 0} 
Flow 53: {58 54 0} {54 128 0} 
Flow 53: {57 58 0} Flow 54: {12 55 0} {55 129 0} 
Flow 55: {34 56 0} {56 130 0} 
Flow 56: {57 131 0} 
Flow 57: {58 132 0} 
Flow 58: {1 59 0} {59 133 0} 
Flow 59: {59 60 0} {60 134 0} 
Flow 60: {34 61 0} {61 135 0} 
Flow 61: {41 62 0} {62 136 0} 
Flow 62: {34 63 0} {63 137 0} 
Flow 63: {38 64 0} {64 138 0} 
Flow 64: {1 74 0} {74 73 0} {73 65 0} {65 139 0} 
Flow 65: {3 66 0} {66 140 0} 
Flow 66: {67 141 0} 
Flow 67: {68 142 0} 
Flow 68: {69 143 0} 
Flow 69: {69 70 0} {70 144 0} 
Flow 70: {73 72 0} {72 71 0} {71 145 0} 
Flow 71: {72 146 0} 
Flow 72: {73 147 0} 
Flow 73: {74 148 0} 
Flow 74: {2 1 0} {1 75 0} 
Flow 75: {2 4 0} Flow 78: {8 6 0} Flow 82: {9 27 0} Flow 107: {68 67 0} Flow 143: {70 71 0} Flow 147: {3 4 0} {4 1 0} Flow 148: {4 2 0} Flow 157: {11 12 0} Flow 162: {4 42 0} Flow 165: {22 20 0} Flow 178: {35 33 0} Flow 182: {36 37 0} Flow 192: {67 69 0} Flow 193: {35 48 0} Flow 210: {66 65 0} Flow 216: {65 73 0} Flow 293: {5 8 0} {8 7 0} {7 2 0} Flow 295: {6 11 0} {11 4 0} Flow 310: {6 51 0} {51 50 0} Flow 370: {6 8 0} Flow 418: {12 57 0} Flow 585: {9 68 0} {68 2 0} Flow 587: {27 67 0} Flow 588: {67 4 0} Flow 600: {67 18 0} Flow 609: {17 26 0} Flow 623: {30 40 0} Flow 655: {71 72 0} Flow 658: {10 27 0} Flow 659: {27 9 0} Flow 685: {10 30 0} Flow 689: {10 40 0} {40 38 0} Flow 693: {40 37 0} Flow 804: {12 11 0} Flow 805: {57 2 0} Flow 862: {58 60 0} Flow 877: {13 15 0} {15 27 0} Flow 891: {15 16 0} Flow 907: {14 49 0} {49 32 0} Flow 950: {14 13 0} Flow 1096: {16 9 0} Flow 1108: {16 15 0} Flow 1169: {17 18 0} {18 42 0} {42 1 0} Flow 1170: {18 67 0} Flow 1187: {26 24 0} {24 23 0} Flow 1205: {67 68 0} Flow 1210: {18 43 0} Flow 1214: {45 47 0} Flow 1315: {19 50 0} {50 1 0} Flow 1319: {51 6 0} Flow 1335: {20 22 0} Flow 1336: {50 23 0} Flow 1337: {23 24 0} Flow 1388: {20 19 0} Flow 1390: {22 23 0} {23 4 0} Flow 1404: {26 17 0} Flow 1461: {21 50 0} Flow 1554: {23 50 0} Flow 1680: {24 42 0} Flow 1753: {25 24 0} Flow 1972: {28 12 0} Flow 2045: {29 34 0} {34 30 0} {30 9 0} Flow 2054: {30 10 0} Flow 2079: {37 36 0} Flow 2191: {31 30 0} Flow 2264: {32 16 0} Flow 2277: {49 14 0} Flow 2337: {33 35 0} {35 67 0} Flow 2338: {33 38 0} {38 68 0} Flow 2346: {40 10 0} Flow 2365: {40 30 0} Flow 2387: {48 52 0} Flow 2556: {36 67 0} Flow 2584: {37 40 0} Flow 2592: {37 38 0} Flow 2775: {39 38 0} Flow 2921: {41 18 0} Flow 2965: {44 46 0} Flow 2996: {42 4 0} Flow 3067: {43 18 0} Flow 3068: {43 67 0} Flow 3109: {46 44 0} Flow 3140: {44 41 0} Flow 3182: {46 43 0} Flow 3213: {45 43 0} Flow 3280: {47 69 0} Flow 3359: {69 67 0} Flow 3360: {69 68 0} Flow 3375: {47 45 0} Flow 3430: {72 73 0} Flow 3432: {48 35 0} Flow 3433: {52 68 0} Flow 3797: {53 7 0} Flow 3870: {54 58 0} {58 57 0} Flow 3927: {60 59 0} Flow 3943: {55 12 0} Flow 4016: {56 34 0} Flow 4235: {59 1 0} Flow 4288: {60 58 0} Flow 4381: {61 34 0} Flow 4454: {62 41 0} Flow 4527: {63 34 0} Flow 4600: {64 38 0} Flow 4673: {73 74 0} {74 1 0} Flow 4675: {65 66 0} {66 3 0} Flow 4719: {71 70 0} {70 69 0} Time taken running everything: 0 seconds
