networks/zoo_148_5402/zoo_148_5402-lower.sol
<?xml version = "1.0" encoding="UTF-8" standalone="yes"?>
<CPLEXSolution version="1.2">
 <header
   problemName="networks/zoo_148_5402/zoo_148_5402-lower.lp"
   solutionName="incumbent"
   solutionIndex="-1"
   objectiveValue="74"
   solutionTypeValue="3"
   solutionTypeString="primal"
   solutionStatusValue="101"
   solutionStatusString="integer optimal solution"
   solutionMethodString="mip"
   primalFeasible="1"
   dualFeasible="1"
   MIPNodes="0"
   MIPIterations="0"
   writeLevel="3"/>
 <quality
   epInt="1.0000000000000001e-05"
   epRHS="9.9999999999999995e-07"
   maxIntInfeas="0"
   maxPrimalInfeas="0"
   maxX="1"
   maxSlack="1"/>
 <variables>
  <variable name="Y(1,2)" index="1" value="1"/>
  <variable name="Y(2,3)" index="150" value="1"/>
  <variable name="Y(3,4)" index="299" value="1"/>
  <variable name="Y(4,5)" index="448" value="1"/>
  <variable name="Y(5,6)" index="597" value="1"/>
  <variable name="Y(6,7)" index="746" value="1"/>
  <variable name="Y(7,8)" index="895" value="1"/>
  <variable name="Y(8,9)" index="1044" value="1"/>
  <variable name="Y(9,10)" index="1193" value="1"/>
  <variable name="Y(10,11)" index="1342" value="1"/>
  <variable name="Y(11,12)" index="1491" value="1"/>
  <variable name="Y(12,13)" index="1640" value="1"/>
  <variable name="Y(13,14)" index="1789" value="1"/>
  <variable name="Y(14,15)" index="1938" value="1"/>
  <variable name="Y(15,16)" index="2087" value="1"/>
  <variable name="Y(16,17)" index="2236" value="1"/>
  <variable name="Y(17,18)" index="2385" value="1"/>
  <variable name="Y(18,19)" index="2534" value="1"/>
  <variable name="Y(19,20)" index="2683" value="1"/>
  <variable name="Y(20,21)" index="2832" value="1"/>
  <variable name="Y(21,22)" index="2981" value="1"/>
  <variable name="Y(22,23)" index="3130" value="1"/>
  <variable name="Y(23,24)" index="3279" value="1"/>
  <variable name="Y(24,25)" index="3428" value="1"/>
  <variable name="Y(25,26)" index="3577" value="1"/>
  <variable name="Y(26,27)" index="3726" value="1"/>
  <variable name="Y(27,28)" index="3875" value="1"/>
  <variable name="Y(28,29)" index="4024" value="1"/>
  <variable name="Y(29,30)" index="4173" value="1"/>
  <variable name="Y(30,31)" index="4322" value="1"/>
  <variable name="Y(31,32)" index="4471" value="1"/>
  <variable name="Y(32,33)" index="4620" value="1"/>
  <variable name="Y(33,34)" index="4769" value="1"/>
  <variable name="Y(34,35)" index="4918" value="1"/>
  <variable name="Y(35,36)" index="5067" value="1"/>
  <variable name="Y(36,37)" index="5216" value="1"/>
  <variable name="Y(37,38)" index="5365" value="1"/>
  <variable name="Y(38,39)" index="5514" value="1"/>
  <variable name="Y(39,40)" index="5663" value="1"/>
  <variable name="Y(40,41)" index="5812" value="1"/>
  <variable name="Y(41,42)" index="5961" value="1"/>
  <variable name="Y(42,43)" index="6110" value="1"/>
  <variable name="Y(43,44)" index="6259" value="1"/>
  <variable name="Y(44,45)" index="6408" value="1"/>
  <variable name="Y(45,46)" index="6557" value="1"/>
  <variable name="Y(46,47)" index="6706" value="1"/>
  <variable name="Y(47,48)" index="6855" value="1"/>
  <variable name="Y(48,49)" index="7004" value="1"/>
  <variable name="Y(49,50)" index="7153" value="1"/>
  <variable name="Y(50,51)" index="7302" value="1"/>
  <variable name="Y(51,52)" index="7451" value="1"/>
  <variable name="Y(52,53)" index="7600" value="1"/>
  <variable name="Y(53,54)" index="7749" value="1"/>
  <variable name="Y(54,55)" index="7898" value="1"/>
  <variable name="Y(55,56)" index="8047" value="1"/>
  <variable name="Y(56,57)" index="8196" value="1"/>
  <variable name="Y(57,58)" index="8345" value="1"/>
  <variable name="Y(58,59)" index="8494" value="1"/>
  <variable name="Y(59,60)" index="8643" value="1"/>
  <variable name="Y(60,61)" index="8792" value="1"/>
  <variable name="Y(61,62)" index="8941" value="1"/>
  <variable name="Y(62,63)" index="9090" value="1"/>
  <variable name="Y(63,64)" index="9239" value="1"/>
  <variable name="Y(64,65)" index="9388" value="1"/>
  <variable name="Y(65,66)" index="9537" value="1"/>
  <variable name="Y(66,67)" index="9686" value="1"/>
  <variable name="Y(67,68)" index="9835" value="1"/>
  <variable name="Y(68,69)" index="9984" value="1"/>
  <variable name="Y(69,70)" index="10133" value="1"/>
  <variable name="Y(70,71)" index="10282" value="1"/>
  <variable name="Y(71,72)" index="10431" value="1"/>
  <variable name="Y(72,73)" index="10580" value="1"/>
  <variable name="Y(73,74)" index="10729" value="1"/>
  <variable name="Y(74,1)" index="10804" value="1"/>
  <variable name="X(1,2,1)" index="799496" value="1"/>
  <variable name="X(1,4,2)" index="804899" value="1"/>
  <variable name="X(1,42,16)" index="810315" value="1"/>
  <variable name="X(1,50,18)" index="815719" value="1"/>
  <variable name="X(1,59,58)" index="821161" value="1"/>
  <variable name="X(1,74,64)" index="826569" value="1"/>
  <variable name="X(1,75,74)" index="831981" value="1"/>
  <variable name="X(2,1,74)" index="837383" value="1"/>
  <variable name="X(2,4,75)" index="842786" value="1"/>
  <variable name="X(2,7,4)" index="848117" value="1"/>
  <variable name="X(2,57,11)" index="853526" value="1"/>
  <variable name="X(2,68,15)" index="858932" value="1"/>
  <variable name="X(2,76,1)" index="864320" value="1"/>
  <variable name="X(3,4,147)" index="869868" value="1"/>
  <variable name="X(3,66,65)" index="875188" value="1"/>
  <variable name="X(3,77,2)" index="880527" value="1"/>
  <variable name="X(4,1,147)" index="886074" value="1"/>
  <variable name="X(4,2,148)" index="891477" value="1"/>
  <variable name="X(4,3,2)" index="896733" value="1"/>
  <variable name="X(4,11,5)" index="902138" value="1"/>
  <variable name="X(4,23,21)" index="907556" value="1"/>
  <variable name="X(4,42,162)" index="913099" value="1"/>
  <variable name="X(4,67,9)" index="918348" value="1"/>
  <variable name="X(4,78,3)" index="923744" value="1"/>
  <variable name="X(5,8,293)" index="929436" value="1"/>
  <variable name="X(5,79,4)" index="934549" value="1"/>
  <variable name="X(6,8,370)" index="940317" value="1"/>
  <variable name="X(6,11,295)" index="945644" value="1"/>
  <variable name="X(6,51,310)" index="951061" value="1"/>
  <variable name="X(6,80,5)" index="956158" value="1"/>
  <variable name="X(7,2,293)" index="961848" value="1"/>
  <variable name="X(7,8,4)" index="966961" value="1"/>
  <variable name="X(7,53,52)" index="972411" value="1"/>
  <variable name="X(7,81,6)" index="977767" value="1"/>
  <variable name="X(8,5,4)" index="983167" value="1"/>
  <variable name="X(8,6,78)" index="988643" value="1"/>
  <variable name="X(8,7,293)" index="994260" value="1"/>
  <variable name="X(8,82,7)" index="999376" value="1"/>
  <variable name="X(9,16,15)" index="1004786" value="1"/>
  <variable name="X(9,27,82)" index="1010255" value="1"/>
  <variable name="X(9,30,28)" index="1015603" value="1"/>
  <variable name="X(9,68,585)" index="1021562" value="1"/>
  <variable name="X(9,83,8)" index="1026387" value="1"/>
  <variable name="X(10,27,658)" index="1032439" value="1"/>
  <variable name="X(10,30,685)" index="1037868" value="1"/>
  <variable name="X(10,40,689)" index="1043274" value="1"/>
  <variable name="X(10,84,9)" index="1047996" value="1"/>
  <variable name="X(11,4,295)" index="1053684" value="1"/>
  <variable name="X(11,6,5)" index="1058796" value="1"/>
  <variable name="X(11,12,157)" index="1064350" value="1"/>
  <variable name="X(11,85,10)" index="1069605" value="1"/>
  <variable name="X(12,11,804)" index="1075801" value="1"/>
  <variable name="X(12,28,27)" index="1080426" value="1"/>
  <variable name="X(12,55,54)" index="1085855" value="1"/>
  <variable name="X(12,57,418)" index="1091621" value="1"/>
  <variable name="X(12,86,11)" index="1096616" value="1"/>
  <variable name="X(13,14,13)" index="1102020" value="1"/>
  <variable name="X(13,15,877)" index="1108286" value="1"/>
  <variable name="X(13,87,12)" index="1112823" value="1"/>
  <variable name="X(14,13,950)" index="1119163" value="1"/>
  <variable name="X(14,49,907)" index="1124522" value="1"/>
  <variable name="X(14,88,13)" index="1129030" value="1"/>
  <variable name="X(15,13,12)" index="1134431" value="1"/>
  <variable name="X(15,16,891)" index="1140712" value="1"/>
  <variable name="X(15,27,877)" index="1146100" value="1"/>
  <variable name="X(15,89,14)" index="1150639" value="1"/>
  <variable name="X(16,9,1096)" index="1157123" value="1"/>
  <variable name="X(16,15,1108)" index="1162537" value="1"/>
  <variable name="X(16,32,31)" index="1166862" value="1"/>
  <variable name="X(16,90,15)" index="1172248" value="1"/>
  <variable name="X(17,18,1169)" index="1178804" value="1"/>
  <variable name="X(17,26,609)" index="1183646" value="1"/>
  <variable name="X(17,91,16)" index="1188455" value="1"/>
  <variable name="X(18,17,16)" index="1193857" value="1"/>
  <variable name="X(18,41,40)" index="1199283" value="1"/>
  <variable name="X(18,42,1169)" index="1205814" value="1"/>
  <variable name="X(18,43,1210)" index="1211257" value="1"/>
  <variable name="X(18,67,1170)" index="1216619" value="1"/>
  <variable name="X(18,92,17)" index="1220868" value="1"/>
  <variable name="X(19,20,19)" index="1226272" value="1"/>
  <variable name="X(19,50,1315)" index="1232970" value="1"/>
  <variable name="X(19,93,18)" index="1237075" value="1"/>
  <variable name="X(20,19,1388)" index="1243847" value="1"/>
  <variable name="X(20,22,1335)" index="1249196" value="1"/>
  <variable name="X(20,94,19)" index="1253282" value="1"/>
  <variable name="X(21,50,1461)" index="1260126" value="1"/>
  <variable name="X(21,95,20)" index="1264087" value="1"/>
  <variable name="X(22,20,165)" index="1269634" value="1"/>
  <variable name="X(22,23,1390)" index="1276261" value="1"/>
  <variable name="X(22,96,21)" index="1280294" value="1"/>
  <variable name="X(23,4,1390)" index="1287065" value="1"/>
  <variable name="X(23,22,21)" index="1291098" value="1"/>
  <variable name="X(23,24,1337)" index="1297816" value="1"/>
  <variable name="X(23,50,1554)" index="1303435" value="1"/>
  <variable name="X(23,97,22)" index="1307305" value="1"/>
  <variable name="X(24,23,1187)" index="1313872" value="1"/>
  <variable name="X(24,25,24)" index="1318111" value="1"/>
  <variable name="X(24,26,25)" index="1323514" value="1"/>
  <variable name="X(24,42,1680)" index="1330571" value="1"/>
  <variable name="X(24,98,23)" index="1334316" value="1"/>
  <variable name="X(25,24,1753)" index="1341448" value="1"/>
  <variable name="X(25,99,24)" index="1345121" value="1"/>
  <variable name="X(26,17,1404)" index="1351903" value="1"/>
  <variable name="X(26,24,1187)" index="1357088" value="1"/>
  <variable name="X(26,100,25)" index="1361328" value="1"/>
  <variable name="X(27,9,659)" index="1367364" value="1"/>
  <variable name="X(27,10,9)" index="1372116" value="1"/>
  <variable name="X(27,15,12)" index="1377521" value="1"/>
  <variable name="X(27,67,587)" index="1383498" value="1"/>
  <variable name="X(27,101,26)" index="1388339" value="1"/>
  <variable name="X(28,12,1972)" index="1395687" value="1"/>
  <variable name="X(28,102,27)" index="1399144" value="1"/>
  <variable name="X(29,34,2045)" index="1406564" value="1"/>
  <variable name="X(29,103,28)" index="1409949" value="1"/>
  <variable name="X(30,9,2045)" index="1417368" value="1"/>
  <variable name="X(30,10,2054)" index="1422779" value="1"/>
  <variable name="X(30,31,30)" index="1426157" value="1"/>
  <variable name="X(30,34,28)" index="1431557" value="1"/>
  <variable name="X(30,40,623)" index="1437554" value="1"/>
  <variable name="X(30,104,29)" index="1442362" value="1"/>
  <variable name="X(31,30,2191)" index="1449926" value="1"/>
  <variable name="X(31,105,30)" index="1453167" value="1"/>
  <variable name="X(32,16,2264)" index="1460803" value="1"/>
  <variable name="X(32,49,48)" index="1463989" value="1"/>
  <variable name="X(32,106,31)" index="1469374" value="1"/>
  <variable name="X(33,35,2337)" index="1477082" value="1"/>
  <variable name="X(33,38,2338)" index="1482485" value="1"/>
  <variable name="X(33,107,32)" index="1485581" value="1"/>
  <variable name="X(34,29,28)" index="1490979" value="1"/>
  <variable name="X(34,30,2045)" index="1498398" value="1"/>
  <variable name="X(34,56,55)" index="1501810" value="1"/>
  <variable name="X(34,61,60)" index="1507217" value="1"/>
  <variable name="X(34,63,62)" index="1512621" value="1"/>
  <variable name="X(34,108,33)" index="1517994" value="1"/>
  <variable name="X(35,33,178)" index="1523541" value="1"/>
  <variable name="X(35,48,193)" index="1528958" value="1"/>
  <variable name="X(35,67,2337)" index="1536504" value="1"/>
  <variable name="X(35,109,34)" index="1539603" value="1"/>
  <variable name="X(36,37,182)" index="1545153" value="1"/>
  <variable name="X(36,67,2556)" index="1552929" value="1"/>
  <variable name="X(36,110,35)" index="1555810" value="1"/>
  <variable name="X(37,36,2079)" index="1563256" value="1"/>
  <variable name="X(37,38,2592)" index="1569171" value="1"/>
  <variable name="X(37,40,2584)" index="1574565" value="1"/>
  <variable name="X(37,111,36)" index="1577419" value="1"/>
  <variable name="X(38,33,32)" index="1582817" value="1"/>
  <variable name="X(38,37,36)" index="1588223" value="1"/>
  <variable name="X(38,39,38)" index="1593627" value="1"/>
  <variable name="X(38,40,39)" index="1599030" value="1"/>
  <variable name="X(38,64,63)" index="1604456" value="1"/>
  <variable name="X(38,68,2338)" index="1612133" value="1"/>
  <variable name="X(38,112,37)" index="1615234" value="1"/>
  <variable name="X(39,38,2775)" index="1623374" value="1"/>
  <variable name="X(39,113,38)" index="1626039" value="1"/>
  <variable name="X(40,10,2346)" index="1633749" value="1"/>
  <variable name="X(40,30,2365)" index="1639170" value="1"/>
  <variable name="X(40,37,693)" index="1642900" value="1"/>
  <variable name="X(40,38,689)" index="1648298" value="1"/>
  <variable name="X(40,114,39)" index="1653050" value="1"/>
  <variable name="X(41,18,2921)" index="1661334" value="1"/>
  <variable name="X(41,44,43)" index="1663858" value="1"/>
  <variable name="X(41,62,61)" index="1669278" value="1"/>
  <variable name="X(41,115,40)" index="1674659" value="1"/>
  <variable name="X(42,1,1169)" index="1681190" value="1"/>
  <variable name="X(42,4,2996)" index="1688419" value="1"/>
  <variable name="X(42,18,16)" index="1690841" value="1"/>
  <variable name="X(42,24,23)" index="1696250" value="1"/>
  <variable name="X(42,116,41)" index="1701670" value="1"/>
  <variable name="X(43,18,3067)" index="1710098" value="1"/>
  <variable name="X(43,45,44)" index="1712477" value="1"/>
  <variable name="X(43,46,45)" index="1717880" value="1"/>
  <variable name="X(43,67,3068)" index="1726305" value="1"/>
  <variable name="X(43,117,42)" index="1728681" value="1"/>
  <variable name="X(44,41,3140)" index="1737181" value="1"/>
  <variable name="X(44,46,2965)" index="1742408" value="1"/>
  <variable name="X(44,118,43)" index="1744888" value="1"/>
  <variable name="X(45,43,3213)" index="1753460" value="1"/>
  <variable name="X(45,47,1214)" index="1756863" value="1"/>
  <variable name="X(45,119,44)" index="1761095" value="1"/>
  <variable name="X(46,43,3182)" index="1769635" value="1"/>
  <variable name="X(46,44,3109)" index="1774964" value="1"/>
  <variable name="X(46,120,45)" index="1777302" value="1"/>
  <variable name="X(47,45,3375)" index="1786034" value="1"/>
  <variable name="X(47,69,3280)" index="1791341" value="1"/>
  <variable name="X(47,121,46)" index="1793509" value="1"/>
  <variable name="X(48,35,3432)" index="1802297" value="1"/>
  <variable name="X(48,52,2387)" index="1806654" value="1"/>
  <variable name="X(48,122,47)" index="1809716" value="1"/>
  <variable name="X(49,14,2277)" index="1817348" value="1"/>
  <variable name="X(49,32,907)" index="1821380" value="1"/>
  <variable name="X(49,123,48)" index="1825923" value="1"/>
  <variable name="X(50,1,1315)" index="1832592" value="1"/>
  <variable name="X(50,19,18)" index="1836697" value="1"/>
  <variable name="X(50,21,20)" index="1842101" value="1"/>
  <variable name="X(50,23,1336)" index="1848819" value="1"/>
  <variable name="X(50,51,50)" index="1852935" value="1"/>
  <variable name="X(50,124,49)" index="1858336" value="1"/>
  <variable name="X(51,6,1319)" index="1865008" value="1"/>
  <variable name="X(51,50,310)" index="1869401" value="1"/>
  <variable name="X(51,125,50)" index="1874543" value="1"/>
  <variable name="X(52,48,47)" index="1879942" value="1"/>
  <variable name="X(52,68,3433)" index="1888730" value="1"/>
  <variable name="X(52,126,51)" index="1890750" value="1"/>
  <variable name="X(53,7,3797)" index="1899898" value="1"/>
  <variable name="X(53,127,52)" index="1901555" value="1"/>
  <variable name="X(54,58,3870)" index="1910775" value="1"/>
  <variable name="X(54,128,53)" index="1912360" value="1"/>
  <variable name="X(55,12,3943)" index="1921652" value="1"/>
  <variable name="X(55,129,54)" index="1923165" value="1"/>
  <variable name="X(56,34,4016)" index="1932529" value="1"/>
  <variable name="X(56,130,55)" index="1933970" value="1"/>
  <variable name="X(57,2,805)" index="1940122" value="1"/>
  <variable name="X(57,12,11)" index="1944730" value="1"/>
  <variable name="X(57,58,53)" index="1950174" value="1"/>
  <variable name="X(57,131,56)" index="1955579" value="1"/>
  <variable name="X(58,54,53)" index="1960978" value="1"/>
  <variable name="X(58,57,3870)" index="1970197" value="1"/>
  <variable name="X(58,60,862)" index="1972591" value="1"/>
  <variable name="X(58,132,57)" index="1977188" value="1"/>
  <variable name="X(59,1,4235)" index="1986768" value="1"/>
  <variable name="X(59,60,59)" index="1987994" value="1"/>
  <variable name="X(59,133,58)" index="1993395" value="1"/>
  <variable name="X(60,58,4288)" index="2003027" value="1"/>
  <variable name="X(60,59,3927)" index="2008068" value="1"/>
  <variable name="X(60,134,59)" index="2009602" value="1"/>
  <variable name="X(61,34,4381)" index="2019326" value="1"/>
  <variable name="X(61,135,60)" index="2020407" value="1"/>
  <variable name="X(62,41,4454)" index="2030203" value="1"/>
  <variable name="X(62,136,61)" index="2031212" value="1"/>
  <variable name="X(63,34,4527)" index="2041080" value="1"/>
  <variable name="X(63,137,62)" index="2042017" value="1"/>
  <variable name="X(64,38,4600)" index="2051957" value="1"/>
  <variable name="X(64,138,63)" index="2052822" value="1"/>
  <variable name="X(65,66,4675)" index="2062836" value="1"/>
  <variable name="X(65,73,216)" index="2063779" value="1"/>
  <variable name="X(65,139,64)" index="2069029" value="1"/>
  <variable name="X(66,3,4675)" index="2079042" value="1"/>
  <variable name="X(66,65,210)" index="2079979" value="1"/>
  <variable name="X(66,140,65)" index="2085236" value="1"/>
  <variable name="X(67,4,588)" index="2091161" value="1"/>
  <variable name="X(67,18,600)" index="2096575" value="1"/>
  <variable name="X(67,27,9)" index="2101386" value="1"/>
  <variable name="X(67,35,34)" index="2106813" value="1"/>
  <variable name="X(67,36,35)" index="2112216" value="1"/>
  <variable name="X(67,43,42)" index="2117625" value="1"/>
  <variable name="X(67,68,1205)" index="2124190" value="1"/>
  <variable name="X(67,69,192)" index="2128579" value="1"/>
  <variable name="X(67,141,66)" index="2133855" value="1"/>
  <variable name="X(68,2,585)" index="2139776" value="1"/>
  <variable name="X(68,9,15)" index="2144608" value="1"/>
  <variable name="X(68,38,32)" index="2150027" value="1"/>
  <variable name="X(68,52,47)" index="2155444" value="1"/>
  <variable name="X(68,67,107)" index="2160906" value="1"/>
  <variable name="X(68,69,46)" index="2166247" value="1"/>
  <variable name="X(68,142,67)" index="2171670" value="1"/>
  <variable name="X(69,47,46)" index="2177051" value="1"/>
  <variable name="X(69,67,3359)" index="2185766" value="1"/>
  <variable name="X(69,68,3360)" index="2191169" value="1"/>
  <variable name="X(69,70,69)" index="2193280" value="1"/>
  <variable name="X(69,143,68)" index="2198681" value="1"/>
  <variable name="X(70,69,4719)" index="2208734" value="1"/>
  <variable name="X(70,71,143)" index="2209560" value="1"/>
  <variable name="X(70,144,69)" index="2214888" value="1"/>
  <variable name="X(71,70,4719)" index="2224940" value="1"/>
  <variable name="X(71,72,655)" index="2226278" value="1"/>
  <variable name="X(71,145,70)" index="2231095" value="1"/>
  <variable name="X(72,71,70)" index="2236497" value="1"/>
  <variable name="X(72,73,3430)" index="2245259" value="1"/>
  <variable name="X(72,146,71)" index="2247302" value="1"/>
  <variable name="X(73,65,64)" index="2252697" value="1"/>
  <variable name="X(73,72,70)" index="2258105" value="1"/>
  <variable name="X(73,74,4673)" index="2268110" value="1"/>
  <variable name="X(73,147,72)" index="2268911" value="1"/>
  <variable name="X(74,1,4673)" index="2278914" value="1"/>
  <variable name="X(74,73,64)" index="2279707" value="1"/>
  <variable name="X(74,148,73)" index="2285118" value="1"/>
 </variables>
</CPLEXSolution>
